Route 1: 0 90 26 32 54 45 48 47 5 99 11 29 0
Route 2: 0 23 84 50 66 62 37 60 22 49 41 0
Route 3: 0 93 52 68 91 7 94 42 71 0
Route 4: 0 78 55 2 64 53 19 38 67 98 80 74 24 0
Route 5: 0 86 13 85 30 69 46 79 28 81 100 59 0
Route 6: 0 73 16 89 58 97 92 96 76 0
Route 7: 0 14 10 57 63 1 21 25 65 87 70 0
Route 8: 0 12 17 9 82 83 33 51 75 56 0
Route 9: 0 72 15 31 18 3 61 88 40 34 0
Route 10: 0 35 77 6 95 8 36 39 43 0
Route 11: 0 27 20 4 44 0
